n = 6;
r = 1;

/*

    b - d  
  / |   | \
 a  |   |  f
  \ |   | /
    c - e

*/

graph = [| 0, 1, 1, 0, 0, 0
         | 1, 0, 1, 1, 0, 0
         | 1, 1, 0, 0, 1, 0
         | 0, 1, 0, 0, 1, 1
         | 0, 0, 1, 1, 0, 1
         | 0, 0, 0, 1, 1, 0 |];